
List of user-set options:

                                    Name   Value                used
                           compl_inf_tol = 1                     yes
                         constr_viol_tol = 1                     yes
                            dual_inf_tol = 1000                  yes
                           linear_solver = ma97                  yes
                              ma86_small = 1e-30                  no
                                  ma86_u = 0.0001                 no
                              ma97_order = best                  yes
                              ma97_small = 1e-30                 yes
                            ma97_switch1 = at_start              yes
                            ma97_switch2 = od_hd_reuse           yes
                                  ma97_u = 1e-06                 yes
                               ma97_umax = 0.5                   yes
                                max_iter = 1000                  yes
                    max_refinement_steps = 20                    yes
                    min_refinement_steps = 5                     yes
                                 mu_init = 1e-06                 yes
           mu_superlinear_decrease_power = 1.25                  yes
                   nlp_scaling_min_value = 1e-08                 yes
                        option_file_name = Preset_Case_469_pf.opt  yes
                             output_file = ./tmp/Preset_Case_469_pf.output  yes
                      print_user_options = yes                   yes
        required_infeasibility_reduction = 1                      no
                                     tol = 1e-08                 yes
                   warm_start_bound_frac = 1e-20                 yes
                   warm_start_bound_push = 1e-20                 yes
                   warm_start_init_point = yes                   yes
              warm_start_mult_bound_push = 1e-20                 yes
                warm_start_mult_init_max = 1e+40                 yes
             warm_start_slack_bound_frac = 1e-20                 yes
             warm_start_slack_bound_push = 1e-20                 yes

******************************************************************************
This program contains Ipopt, a library for large-scale nonlinear optimization.
 Ipopt is released as open source code under the Eclipse Public License (EPL).
         For more information visit http://projects.coin-or.org/Ipopt
******************************************************************************

This is Ipopt version 3.12.10, running with linear solver ma97.

Number of nonzeros in equality constraint Jacobian...:   123443
Number of nonzeros in inequality constraint Jacobian.:      213
Number of nonzeros in Lagrangian Hessian.............:    49069

Total number of variables............................:    31591
                     variables with only lower bounds:    12912
                variables with lower and upper bounds:    15130
                     variables with only upper bounds:        0
Total number of equality constraints.................:    31483
Total number of inequality constraints...............:       25
        inequality constraints with only lower bounds:        4
   inequality constraints with lower and upper bounds:        0
        inequality constraints with only upper bounds:       21

iter    objective    inf_pr   inf_du lg(mu)  ||d||  lg(rg) alpha_du alpha_pr  ls
   0 -5.0563384e+00 4.07e-03 1.02e+00  -6.0 0.00e+00    -  0.00e+00 0.00e+00   0
   1 -5.0606304e+00 9.46e+00 4.90e+01  -6.0 3.89e+05    -  8.65e-05 1.22e-03h  1
   2 -5.0605847e+00 9.46e+00 4.90e+01  -6.0 1.59e+03    -  1.09e-04 3.70e-05h  1
   3 -5.0563662e+00 9.44e+00 1.22e+02  -6.0 1.21e+04    -  1.16e-04 2.05e-03h  2
   4 -5.0555684e+00 9.44e+00 1.45e+02  -6.0 1.27e+03    -  2.45e-01 6.40e-04h  4
   5r-5.0555684e+00 9.44e+00 9.99e+02   1.0 0.00e+00    -  0.00e+00 4.73e-07R 16
   6r-5.1501224e+00 9.44e+00 9.99e+02   1.0 3.11e+05    -  1.28e-09 2.53e-08f  1
   7 -5.1688634e+00 9.43e+00 2.93e+03  -6.0 2.17e+06    -  1.10e-03 4.81e-04h  1
   8 -5.1728827e+00 9.40e+00 3.16e+03  -6.0 3.03e+05    -  2.20e-05 3.36e-03h  1
   9 -5.1754760e+00 9.37e+00 3.10e+03  -6.0 9.69e+04    -  1.02e-05 3.98e-03h  1
iter    objective    inf_pr   inf_du lg(mu)  ||d||  lg(rg) alpha_du alpha_pr  ls
  10 -5.1751441e+00 9.36e+00 3.07e+03  -6.0 1.16e+04    -  3.93e-03 1.08e-03h  4
  11 -5.1767355e+00 9.28e+00 2.06e+04  -6.0 2.28e+04    -  2.30e-03 8.20e-03h  1
  12 -5.1814246e+00 9.17e+00 7.96e+04  -6.0 1.30e+04    -  8.70e-03 1.23e-02h  1
  13 -5.1796822e+00 9.08e+00 8.79e+04  -6.0 1.66e+04    -  2.52e-02 1.01e-02h  2
  14 -5.1778542e+00 9.07e+00 8.78e+04  -6.0 5.32e+02  -4.0 4.77e-04 1.57e-03h  4
  15 -5.1768835e+00 9.06e+00 8.77e+04  -6.0 5.21e+02  -4.5 5.36e-03 8.33e-04h  6
  16 -5.1765557e+00 9.06e+00 8.77e+04  -6.0 5.29e+02  -5.0 3.65e-03 2.85e-04h  8
  17 -5.1763843e+00 9.05e+00 8.76e+04  -6.0 5.43e+02  -5.4 1.32e-01 1.52e-04h 10
  18 -5.1763085e+00 9.05e+00 8.76e+04  -6.0 5.65e+02  -5.9 7.01e-03 7.04e-05h 13
  19 -5.1394628e+00 8.71e+00 7.78e+04  -6.0 6.02e+02  -6.4 1.15e-01 3.78e-02h  1
iter    objective    inf_pr   inf_du lg(mu)  ||d||  lg(rg) alpha_du alpha_pr  ls
  20 -4.9398052e+00 6.27e+00 4.56e+08  -6.0 6.12e+02  -6.9 5.50e-02 2.86e-01H  1
  21 -4.9243956e+00 5.70e+00 4.15e+08  -6.0 6.11e+02  -7.3 5.10e-02 9.01e-02h  1
  22 -4.9191788e+00 4.75e+00 3.45e+08  -6.0 9.72e+02  -7.8 1.18e-01 1.69e-01h  1
  23 -4.9367344e+00 3.88e+00 2.82e+08  -6.0 4.78e+02  -8.3 2.14e-01 1.84e-01h  1
  24 -4.9468653e+00 3.64e+00 2.65e+08  -6.0 1.97e+03  -8.8 1.37e-02 6.08e-02h  1
  25 -4.9470973e+00 3.64e+00 2.64e+08  -6.0 1.73e+03  -9.2 3.24e-02 1.02e-03h  1
  26 -4.9726693e+00 3.21e+00 2.33e+08  -6.0 8.03e+02  -9.7 2.63e-02 1.18e-01f  1
  27 -4.9856693e+00 3.03e+00 2.20e+08  -6.0 1.78e+03    -  6.27e-01 5.60e-02h  1
  28 -5.1013631e+00 1.03e+01 1.08e+08  -6.0 1.54e+03    -  2.47e-01 5.08e-01h  1
  29 -5.1170060e+00 9.43e+00 9.92e+07  -6.0 1.24e+03    -  1.91e-01 8.41e-02h  1
iter    objective    inf_pr   inf_du lg(mu)  ||d||  lg(rg) alpha_du alpha_pr  ls
  30 -5.1170251e+00 9.42e+00 9.92e+07  -6.0 5.93e+02    -  4.12e-04 1.08e-04h  1
  31 -5.1267249e+00 8.95e+00 9.42e+07  -6.0 3.00e+03    -  6.78e-02 5.07e-02f  1
  32 -5.1269801e+00 8.93e+00 9.41e+07  -6.0 6.46e+02    -  2.40e-02 1.52e-03h  1
  33 -5.1269820e+00 8.93e+00 9.40e+07  -6.0 6.49e+02    -  1.11e-01 1.14e-05h  1
  34 -5.2616081e+00 5.06e+00 1.51e+08  -6.0 6.45e+02    -  1.72e-01 8.12e-01h  1
  35 -5.2705888e+00 4.97e+00 1.09e+08  -6.0 1.04e+03    -  5.96e-03 2.49e-01h  1
  36 -5.2710811e+00 4.90e+00 1.08e+08  -6.0 4.42e+02    -  8.40e-02 1.43e-02h  1
  37 -5.2772825e+00 4.32e+00 9.99e+07  -6.0 1.94e+03  -8.4 1.71e-01 1.18e-01h  1
  38 -5.2878730e+00 2.54e+01 9.84e+07  -6.0 1.71e+04  -8.9 2.11e-02 6.89e-02h  1
  39 -5.2905435e+00 2.44e+01 7.17e+07  -6.0 2.27e+03    -  1.28e-04 2.49e-01h  1
iter    objective    inf_pr   inf_du lg(mu)  ||d||  lg(rg) alpha_du alpha_pr  ls
  40 -5.3014832e+00 2.62e+01 6.02e+07  -6.0 2.89e+03  -8.4 4.94e-01 2.30e-01h  1
  41 -5.3275648e+00 2.77e+00 1.16e+07  -6.0 4.37e+02    -  8.17e-02 1.00e+00h  1
  42 -5.3335518e+00 3.96e+00 1.13e+07  -6.0 5.99e+03  -8.0 1.13e-01 4.79e-02h  1
  43 -5.3345512e+00 3.60e+00 9.79e+06  -6.0 6.50e+02    -  6.40e-01 1.14e-01h  1
  44 -5.3345771e+00 3.59e+00 9.77e+06  -6.0 5.48e+02    -  1.24e-01 2.48e-03h  1
  45 -5.3419071e+00 3.05e+00 4.62e+06  -6.0 3.58e+02  -8.5 4.36e-01 1.00e+00h  1
  46 -5.3505990e+00 9.95e-01 1.48e+06  -6.0 2.45e+02    -  3.25e-01 7.79e-01h  1
  47 -5.3545331e+00 5.22e-01 5.28e+05  -6.0 1.09e+02    -  8.28e-01 4.82e-01h  1
  48 -5.3616582e+00 4.71e-01 1.73e+05  -6.0 8.40e+01    -  1.96e-01 1.00e+00h  1
  49 -5.3638486e+00 4.51e-01 1.32e+05  -6.0 9.20e+01    -  1.00e+00 2.59e-01h  1
iter    objective    inf_pr   inf_du lg(mu)  ||d||  lg(rg) alpha_du alpha_pr  ls
  50 -5.3665075e+00 5.54e-01 9.03e+04  -6.0 1.55e+02    -  6.10e-01 3.43e-01h  1
  51 -5.3749023e+00 1.07e-01 4.21e+04  -6.0 5.17e+01    -  1.00e+00 1.00e+00h  1
  52 -5.3778418e+00 1.29e+00 3.58e+04  -6.0 1.60e+03  -8.1 1.30e-01 1.29e-01h  1
  53 -5.3794259e+00 1.26e+00 7.98e+05  -6.0 6.11e+02    -  7.64e-01 8.63e-02h  1
  54 -5.3795777e+00 1.25e+00 7.38e+05  -6.0 6.17e+03    -  6.01e-03 1.03e-02h  1
  55 -5.3854516e+00 1.03e+00 3.33e+05  -6.0 2.41e+02    -  7.76e-03 2.95e-01h  1
  56r-5.3854516e+00 1.03e+00 1.00e+03   0.0 0.00e+00    -  0.00e+00 1.75e-07R  2
  57r-5.4067457e+00 1.03e+00 1.00e+03   0.0 1.49e+04    -  5.15e-06 1.73e-06f  1
  58 -5.4042767e+00 9.12e-01 1.32e+05  -6.0 5.16e+00    -  1.94e-01 1.12e-01h  1
  59 -5.3995425e+00 6.91e-01 4.64e+05  -6.0 4.40e+00    -  1.12e-01 2.42e-01h  1
iter    objective    inf_pr   inf_du lg(mu)  ||d||  lg(rg) alpha_du alpha_pr  ls
  60 -5.3848499e+00 4.96e-04 1.07e+02  -6.0 3.40e+00    -  4.63e-01 1.00e+00h  1
  61 -5.3851676e+00 7.84e-06 4.36e+01  -6.0 4.45e-01    -  8.09e-01 1.00e+00h  1
  62 -5.3858540e+00 2.43e-04 9.02e-01  -6.0 2.48e+00    -  9.75e-01 1.00e+00h  1
  63 -5.3980383e+00 9.94e-02 4.20e+01  -6.0 7.22e+01    -  8.89e-02 6.94e-01h  1
  64 -5.3947792e+00 4.03e-02 2.02e+02  -6.0 3.69e+01    -  5.73e-01 1.00e+00h  1
  65 -5.4012443e+00 9.47e-02 1.63e+02  -6.0 1.84e+02  -5.8 2.11e-01 2.20e-01h  1
  66 -5.4015227e+00 1.78e-01 3.04e+03  -6.0 7.35e+01    -  8.38e-01 1.00e+00H  1
  67 -5.4055563e+00 3.50e-01 2.96e+03  -6.0 4.31e+03    -  5.25e-02 2.56e-02h  2
  68 -5.4164391e+00 2.02e-01 7.72e+00  -6.0 6.84e+01  -6.3 9.68e-01 1.00e+00h  1
  69 -5.4263841e+00 5.21e-01 1.07e+01  -6.0 1.34e+02  -6.8 9.87e-01 1.00e+00h  1
iter    objective    inf_pr   inf_du lg(mu)  ||d||  lg(rg) alpha_du alpha_pr  ls
  70 -5.4365911e+00 1.20e+00 2.09e+01  -6.0 1.01e+03  -7.3 2.02e-01 1.60e-01h  1
  71 -5.4427107e+00 1.10e+00 2.44e+03  -6.0 2.67e+02    -  9.92e-01 1.00e+00h  1
  72 -5.4519347e+00 6.17e-01 2.92e+04  -6.0 3.13e+02  -6.8 2.26e-01 4.38e-01h  1
  73 -5.4667449e+00 7.88e-01 4.44e+04  -6.0 1.68e+02    -  6.96e-01 1.00e+00h  1
  74 -5.4743765e+00 2.90e-01 1.13e+05  -6.0 9.92e+01  -6.4 6.60e-01 1.00e+00h  1
  75 -5.4801245e+00 5.41e-01 7.14e+04  -6.0 2.49e+02    -  5.25e-01 3.66e-01h  1
  76 -5.4813847e+00 7.96e-01 4.32e+04  -6.0 1.06e+02    -  8.17e-05 3.96e-01H  1
  77 -5.4805429e+00 6.02e-01 2.15e+04  -6.0 1.60e+02    -  9.01e-01 5.00e-01h  2
  78 -5.4842557e+00 4.96e-01 9.15e+01  -6.0 1.25e+02    -  9.99e-01 1.00e+00h  1
  79 -5.4847533e+00 2.11e-01 7.69e-01  -6.0 8.23e+01    -  1.00e+00 1.00e+00h  1
iter    objective    inf_pr   inf_du lg(mu)  ||d||  lg(rg) alpha_du alpha_pr  ls
  80 -5.4836614e+00 1.76e-03 5.24e+00  -6.0 6.62e+00    -  8.74e-01 1.00e+00h  1
  81 -5.4835158e+00 5.05e-04 1.14e-02  -6.0 3.50e+00    -  1.00e+00 1.00e+00h  1
  82 -5.4835016e+00 8.78e-06 1.90e-04  -6.0 4.62e-01    -  1.00e+00 1.00e+00h  1
  83 -5.4835013e+00 4.10e-09 8.43e-08  -6.0 9.99e-03    -  1.00e+00 1.00e+00h  1
  84 -5.4839463e+00 6.60e+00 5.24e+01  -7.5 8.59e+02    -  6.34e-01 7.56e-01f  1
  85 -5.4839350e+00 2.08e+00 1.52e+01  -7.5 2.92e+02    -  7.94e-01 8.39e-01h  1
  86 -5.4839326e+00 2.33e-01 1.01e+00  -7.5 1.12e+02    -  1.00e+00 1.00e+00h  1
  87 -5.4839402e+00 4.56e-05 4.06e-02  -7.5 1.56e+00  -6.9 1.00e+00 1.00e+00h  1
  88 -5.4839429e+00 7.69e-04 1.11e-02  -7.5 5.39e+00  -7.4 1.00e+00 1.00e+00h  1
  89 -5.4839432e+00 7.89e-04 4.85e-01  -7.5 2.11e+02    -  1.00e+00 4.34e-03h  2
iter    objective    inf_pr   inf_du lg(mu)  ||d||  lg(rg) alpha_du alpha_pr  ls
  90 -5.4839841e+00 9.85e-01 1.30e-01  -7.5 1.41e+02    -  1.00e+00 1.00e+00h  1
  91 -5.4839633e+00 2.01e-03 4.30e-05  -7.5 2.41e+00    -  1.00e+00 1.00e+00h  1
  92 -5.4839633e+00 1.73e-06 3.92e-08  -7.5 7.99e-02    -  1.00e+00 1.00e+00h  1
  93 -5.4839633e+00 2.89e-10 3.24e-12  -7.5 8.69e-06    -  1.00e+00 1.00e+00h  1
  94 -5.4839650e+00 1.17e-02 9.13e-01  -9.0 3.20e+01    -  9.34e-01 8.34e-01h  1
  95 -5.4839652e+00 4.71e-04 1.14e-01  -9.0 5.35e+00    -  9.74e-01 1.00e+00h  1
  96 -5.4839652e+00 9.53e-10 5.04e-09  -9.0 8.06e-03    -  1.00e+00 1.00e+00h  1

Number of Iterations....: 96

                                   (scaled)                 (unscaled)
Objective...............:  -4.2843477834457246e+00   -5.4839651628105273e+00
Dual infeasibility......:   5.0366586734579044e-09    6.4469231020261178e-09
Constraint violation....:   6.0541116880842205e-10    9.5315044745802879e-10
Complementarity.........:   1.3256562662375492e-09    1.6968400207840630e-09
Overall NLP error.......:   5.0366586734579044e-09    6.4469231020261178e-09


Number of objective function evaluations             = 170
Number of objective gradient evaluations             = 97
Number of equality constraint evaluations            = 170
Number of inequality constraint evaluations          = 170
Number of equality constraint Jacobian evaluations   = 99
Number of inequality constraint Jacobian evaluations = 99
Number of Lagrangian Hessian evaluations             = 96
Total CPU secs in IPOPT (w/o function evaluations)   =    243.781
Total CPU secs in NLP function evaluations           =      5.055

EXIT: Optimal Solution Found.
